Function: get_partitions took 1.5020370483398438e-05 seconds
Function: map_flows_partitions took 3.3855438232421875e-05 seconds
Building model with:
21 devices, 1 partitions and 20 flows
Using license file /home/anup/gurobi.lic
Academic license - for non-commercial use only
Function: MIP.add_frac_mem_var took 0.0004093647003173828 seconds
Function: MIP.add_coverage_constraints took 0.00047206878662109375 seconds
Function: MIP.add_accuracy_constraints took 0.0006215572357177734 seconds
Function: MIP.add_capacity_constraints took 0.0018181800842285156 seconds
Changed value of parameter TimeLimit to 120.0
   Prev: inf  Min: 0.0  Max: inf  Default: inf
--------------------------------------------------
Starting model update
Model update took: 0.00012993812561035156 s
--------------------------------------------------
Starting model optimize
Gurobi Optimizer version 9.0.0 build v9.0.0rc2 (linux64)
Optimize a model with 84 rows, 86 columns and 208 nonzeros
Model fingerprint: 0xa8458d4f
Model has 1 general constraint
Variable types: 86 continuous, 0 integer (0 binary)
Coefficient statistics:
  Matrix range     [1e+00, 5e+03]
  Objective range  [1e+00, 1e+00]
  Bounds range     [1e+00, 3e+04]
  RHS range        [1e+00, 1e+00]

---------------------------------------------------------------------------
Multi-objectives: starting optimization with 2 objectives ... 
---------------------------------------------------------------------------

Multi-objectives: applying initial presolve ...
---------------------------------------------------------------------------

Presolve removed 64 rows and 65 columns
Presolve time: 0.00s
Presolved: 20 rows and 21 columns
---------------------------------------------------------------------------

Multi-objectives: optimize objective 1 (max_mem) ...
---------------------------------------------------------------------------

Presolve removed 20 rows and 21 columns
Presolve time: 0.00s
Presolve: All rows and columns removed
Iteration    Objective       Primal Inf.    Dual Inf.      Time
       0    3.9447891e+03   0.000000e+00   0.000000e+00      0s

Solved in 0 iterations and 0.00 seconds
Optimal objective  3.944789062e+03
---------------------------------------------------------------------------

Multi-objectives: optimize objective 2 (tot_mem) ...
---------------------------------------------------------------------------

Presolve removed 1 rows and 0 columns
Presolve time: 0.00s
Presolved: 20 rows, 21 columns, 60 nonzeros

Iteration    Objective       Primal Inf.    Dual Inf.      Time
       0    1.5355585e+04   2.303268e-03   0.000000e+00      0s
      17    1.5461239e+04   0.000000e+00   0.000000e+00      0s

Solved in 17 iterations and 0.00 seconds
Optimal objective  1.546123874e+04

---------------------------------------------------------------------------
Multi-objectives: solved in 0.00 seconds, solution count 2

Model optimize took: 0.001735687255859375 seconds
--------------------------------------------------

Solution quality statistics for model Univmon :
  Maximum violation:
    Bound       : 2.27373675e-13 (mem_tot_P4_0)
    Constraint  : 2.22044605e-16 (cov_18_0)
    Integrality : 0.00000000e+00

Sketch (0) (cm: eps0: 6.25e-06, del0: 0.05, min_mem: 1698.9296875)
Par: 1, Rows: 3
(0.113,18)    (0.113,3)    (0.113,8)    (0.113,14)    (0.113,19)    (0.113,4)    (0.113,9)    (0.113,15)    (0.774,20)    (0.113,5)    (0.113,10)    (0.113,0)    (0.113,6)    (0.113,11)    (0.113,16)    (0.113,1)    (0.113,7)    (0.113,12)    (0.113,17)    (0.113,2)    (0.113,13)    
Total frac: 3.034

Device (0) P4_0:
Rows total: 0.33903698560214857
Mem total: 576.0000000000002

Device (1) P4_1:
Rows total: 0.3388047924106633
Mem total: 575.6055200937506

Device (2) P4_2:
Rows total: 0.33903698560214857
Mem total: 576.0000000000002

Device (3) P4_3:
Rows total: 0.3388047924106633
Mem total: 575.6055200937506

Device (4) P4_4:
Rows total: 0.33903698560214857
Mem total: 576.0000000000002

Device (5) P4_5:
Rows total: 0.3388047924106633
Mem total: 575.6055200937506

Device (6) P4_6:
Rows total: 0.33903698560214846
Mem total: 576.0

Device (7) P4_7:
Rows total: 0.3388047924106633
Mem total: 575.6055200937506

Device (8) P4_8:
Rows total: 0.33903698560214857
Mem total: 576.0000000000002

Device (9) P4_9:
Rows total: 0.3388047924106633
Mem total: 575.6055200937506

Device (10) P4_10:
Rows total: 0.33903698560214846
Mem total: 576.0

Device (11) P4_11:
Rows total: 0.3388047924106633
Mem total: 575.6055200937506

Device (12) P4_12:
Rows total: 0.33903698560214857
Mem total: 576.0000000000002

Device (13) P4_13:
Rows total: 0.3388047924106633
Mem total: 575.6055200937506

Device (14) P4_14:
Rows total: 0.33903698560214857
Mem total: 576.0000000000002

Device (15) P4_15:
Rows total: 0.3388047924106633
Mem total: 575.6055200937506

Device (16) P4_16:
Rows total: 0.33903698560214846
Mem total: 576.0

Device (17) P4_17:
Rows total: 0.3388047924106633
Mem total: 575.6055200937506

Device (18) P4_18:
Rows total: 0.33903698560214846
Mem total: 576.0

Device (19) P4_19:
Rows total: 0.3388047924106633
Mem total: 575.6055200937506

Device (20) CPU_1:
Rows total: 2.3221582219871877
Mem total: 3945.1835424062488
--------------------------------------------------
Changed value of parameter NonConvex to 2
   Prev: -1  Min: -1  Max: 2  Default: -1

Throughput: 87.49999999999999 Mpps, ns per packet: 11.42857142857143
Resources: 312.0940109191215
Used Cores: 6.9999999999999964, Total CPUS: 1, Switch Memory: 11516.055200937506

Sketch (0) (cm: eps0: 6.25e-06, del0: 0.05, min_mem: 1698.9296875)
Par: 1, Rows: 3
(0.113,18)    (0.113,3)    (0.113,8)    (0.113,14)    (0.113,19)    (0.113,4)    (0.113,9)    (0.113,15)    (0.774,20)    (0.113,5)    (0.113,10)    (0.113,0)    (0.113,6)    (0.113,11)    (0.113,16)    (0.113,1)    (0.113,7)    (0.113,12)    (0.113,17)    (0.113,2)    (0.113,13)    
Total frac: 3.034

Device (0) P4_0:
Rows total: 0.33903698560214857
Mem total: 576.0000000000001
Throughput: 148.0

Device (1) P4_1:
Rows total: 0.3388047924106633
Mem total: 575.6055200937506
Throughput: 148.0

Device (2) P4_2:
Rows total: 0.33903698560214857
Mem total: 576.0000000000001
Throughput: 148.0

Device (3) P4_3:
Rows total: 0.3388047924106633
Mem total: 575.6055200937506
Throughput: 148.0

Device (4) P4_4:
Rows total: 0.33903698560214857
Mem total: 576.0000000000001
Throughput: 148.0

Device (5) P4_5:
Rows total: 0.3388047924106633
Mem total: 575.6055200937506
Throughput: 148.0

Device (6) P4_6:
Rows total: 0.33903698560214846
Mem total: 576.0
Throughput: 148.0

Device (7) P4_7:
Rows total: 0.3388047924106633
Mem total: 575.6055200937506
Throughput: 148.0

Device (8) P4_8:
Rows total: 0.33903698560214857
Mem total: 576.0000000000001
Throughput: 148.0

Device (9) P4_9:
Rows total: 0.3388047924106633
Mem total: 575.6055200937506
Throughput: 148.0

Device (10) P4_10:
Rows total: 0.33903698560214846
Mem total: 576.0
Throughput: 148.0

Device (11) P4_11:
Rows total: 0.3388047924106633
Mem total: 575.6055200937506
Throughput: 148.0

Device (12) P4_12:
Rows total: 0.33903698560214857
Mem total: 576.0000000000001
Throughput: 148.0

Device (13) P4_13:
Rows total: 0.3388047924106633
Mem total: 575.6055200937506
Throughput: 148.0

Device (14) P4_14:
Rows total: 0.33903698560214857
Mem total: 576.0000000000001
Throughput: 148.0

Device (15) P4_15:
Rows total: 0.3388047924106633
Mem total: 575.6055200937506
Throughput: 148.0

Device (16) P4_16:
Rows total: 0.33903698560214846
Mem total: 576.0
Throughput: 148.0

Device (17) P4_17:
Rows total: 0.3388047924106633
Mem total: 575.6055200937506
Throughput: 148.0

Device (18) P4_18:
Rows total: 0.33903698560214846
Mem total: 576.0
Throughput: 148.0

Device (19) P4_19:
Rows total: 0.3388047924106633
Mem total: 575.6055200937506
Throughput: 148.0

Device (20) CPU_1:
cores_sketch: 2.0000000000000004, cores_dpdk: 4.9999999999999964
Rows total: 2.3221582219871877
Mem total: 3945.1835424062488
Throughput: 87.49999999999999
--------------------------------------------------
Function: MIP.solve took 0.0324099063873291 seconds
Function: solve took 0.03275442123413086 seconds
